32	0

0	1	2
8	1	3
6	1	4
4	1	5
2	1	6
9	1	7
1	1	8
9	1	9
8	1	10
4	2	11	13
8	1	12
2	1	14
10	1	14
6	1	15
6	1	16
2	2	17	18
6	1	19
1	1	19
10	1	20
9	2	21	22
10	1	26
3	1	23
4	1	24
2	2	25	26
7	1	27
10	1	27
10	1	28
5	1	29
7	1	30
9	1	31
3	1	32
0	0
